c generated by sgen
p cnf 57 124
-2 -3 -4 0
-1 -3 -4 0
-1 -2 -4 0
-1 -2 -3 0
-6 -7 -8 0
-5 -7 -8 0
-5 -6 -8 0
-5 -6 -7 0
-10 -11 -12 0
-9 -11 -12 0
-9 -10 -12 0
-9 -10 -11 0
-14 -15 -16 0
-13 -15 -16 0
-13 -14 -16 0
-13 -14 -15 0
-18 -19 -20 0
-17 -19 -20 0
-17 -18 -20 0
-17 -18 -19 0
-22 -23 -24 0
-21 -23 -24 0
-21 -22 -24 0
-21 -22 -23 0
-26 -27 -28 0
-25 -27 -28 0
-25 -26 -28 0
-25 -26 -27 0
-30 -31 -32 0
-29 -31 -32 0
-29 -30 -32 0
-29 -30 -31 0
-34 -35 -36 0
-33 -35 -36 0
-33 -34 -36 0
-33 -34 -35 0
-38 -39 -40 0
-37 -39 -40 0
-37 -38 -40 0
-37 -38 -39 0
-42 -43 -44 0
-41 -43 -44 0
-41 -42 -44 0
-41 -42 -43 0
-46 -47 -48 0
-45 -47 -48 0
-45 -46 -48 0
-45 -46 -47 0
-50 -51 -52 0
-49 -51 -52 0
-49 -50 -52 0
-49 -50 -51 0
-53 -54 -55 0
-53 -54 -56 0
-53 -54 -57 0
-53 -55 -56 0
-53 -55 -57 0
-53 -56 -57 0
-54 -55 -56 0
-54 -55 -57 0
-54 -56 -57 0
-55 -56 -57 0
39 31 10 0
41 31 10 0
41 39 10 0
41 39 31 0
54 42 49 0
18 42 49 0
18 54 49 0
18 54 42 0
57 3 19 0
37 3 19 0
37 57 19 0
37 57 3 0
46 50 16 0
38 50 16 0
38 46 16 0
38 46 50 0
13 25 17 0
30 25 17 0
30 13 17 0
30 13 25 0
20 35 5 0
12 35 5 0
12 20 5 0
12 20 35 0
15 4 33 0
43 4 33 0
43 15 33 0
43 15 4 0
34 51 22 0
28 51 22 0
28 34 22 0
28 34 51 0
11 27 24 0
55 27 24 0
55 11 24 0
55 11 27 0
9 23 47 0
2 23 47 0
2 9 47 0
2 9 23 0
29 52 7 0
1 52 7 0
1 29 7 0
1 29 52 0
45 26 8 0
44 26 8 0
44 45 8 0
44 45 26 0
48 36 32 0
53 36 32 0
53 48 32 0
53 48 36 0
14 40 56 0
14 40 21 0
14 40 6 0
14 56 21 0
14 56 6 0
14 21 6 0
40 56 21 0
40 56 6 0
40 21 6 0
56 21 6 0
